; benchmark generated from python API
(set-info :status unknown)
(declare-fun S_1 () Real)
(declare-fun S_2 () Real)
(declare-fun L_1 () Real)
(declare-fun A_2 () Real)
(declare-fun S_3 () Real)
(declare-fun S_0 () Real)
(declare-fun A_1 () Real)
(declare-fun A_0 () Real)
(declare-fun L_0 () Real)
(declare-fun A_3 () Real)
(declare-fun Q_3 () Real)
(assert
 (let (($x963 (>= Q_3 0.0)))
 (let (($x2922 (<= (+ (* (- 1.0) A_0) L_0 (* (- 1.0) S_3) (* 2.0 S_1)) 0.0)))
 (let (($x1307 (<= (+ A_2 (* (- 1.0) S_3) (* (- 1.0) L_1)) 0.0)))
 (let (($x1084 (= Q_3 0.0)))
 (let ((?x639 (* (- 1.0) A_1)))
 (let ((?x2635 (* (/ 1.0 2.0) S_2)))
 (let ((?x2108 (* (- (/ 1.0 2.0)) L_0)))
 (let ((?x2141 (* (/ 1.0 2.0) A_0)))
 (let ((?x617 (* (- 1.0) A_0)))
 (let ((?x665 (* (- 1.0) A_3)))
 (let ((?x1187 (* 2.0 L_1)))
 (let ((?x533 (* (- 1.0) L_0)))
 (let ((?x542 (* (- 1.0) L_1)))
 (let (($x481 (= ?x542 ?x533)))
 (let (($x23339 (or $x481 $x1084 (<= (+ ?x1187 ?x639 Q_3 ?x665 S_2 S_0 ?x617 A_2) 0.0) (<= (+ ?x2141 ?x2108 ?x2635 L_1 ?x639) 0.0))))
 (let (($x13173 (<= (+ L_1 (* (- (/ 1.0 2.0)) A_1) (* (/ 1.0 2.0) Q_3) (* (- (/ 1.0 2.0)) A_3) S_2) 0.0)))
 (let ((?x2054 (* (/ 1.0 2.0) L_0)))
 (let (($x2666 (<= (+ Q_3 ?x665 (* (- (/ 3.0 2.0)) A_0) ?x2054 ?x2635 S_0 L_1 A_2) 0.0)))
 (let (($x2044 (<= (+ Q_3 ?x665 S_2 L_1 ?x639 A_2) 0.0)))
 (let ((?x1497 (* (- 2.0) A_2)))
 (let ((?x1496 (* 2.0 A_0)))
 (let ((?x1495 (* (- 2.0) S_0)))
 (let ((?x1100 (* 2.0 A_3)))
 (let ((?x1012 (* (- 1.0) S_3)))
 (let ((?x1494 (* (- 3.0) L_1)))
 (let (($x10809 (<= (+ ?x1494 A_1 ?x1012 ?x1100 ?x1495 ?x1496 ?x1497) 0.0)))
 (let ((?x1493 (* 2.0 A_2)))
 (let ((?x1469 (* (- 2.0) A_0)))
 (let ((?x1474 (* (- 2.0) A_3)))
 (let ((?x1447 (* 2.0 Q_3)))
 (let ((?x1476 (* 3.0 L_1)))
 (let (($x1482 (<= (+ ?x1476 ?x639 ?x1447 ?x1474 S_3 (* 2.0 S_0) ?x1469 ?x1493) 0.0)))
 (let (($x960 (<= (+ (* (/ 2.0 3.0) A_0) (* (- (/ 2.0 3.0)) L_0) (* (/ 1.0 3.0) S_3) L_1 ?x639) 0.0)))
 (let (($x2672 (<= (+ Q_3 ?x665 (* (- (/ 1.0 2.0)) A_0) ?x2054 (* (/ 3.0 2.0) S_2) L_1) 0.0)))
 (let (($x2130 (<= (+ Q_3 ?x665 ?x617 L_0 (* 2.0 S_1) L_1 ?x639 A_2) 0.0)))
 (let (($x56114 (or $x481 $x1084 $x2130 (<= (+ Q_3 ?x665 ?x1469 L_0 S_1 S_0 L_1 A_2) 0.0))))
 (let (($x13319 (<= (+ ?x542 (* (/ 1.0 2.0) A_1) (* (- (/ 1.0 2.0)) Q_3) (* (/ 1.0 2.0) A_3) ?x1012) 0.0)))
 (let ((?x1155 (* (- 2.0) L_1)))
 (let ((?x2159 (* (- 2.0) S_1)))
 (let ((?x2158 (* 3.0 A_0)))
 (let ((?x1520 (* (- 2.0) Q_3)))
 (let (($x1980 (<= (+ ?x1520 ?x1100 A_0 ?x533 (* (- 3.0) S_3) ?x1155) 0.0)))
 (let ((?x846 (* (- 1.0) A_2)))
 (let ((?x935 (* (- 1.0) S_1)))
 (let ((?x507 (* (- 1.0) Q_3)))
 (let (($x937 (<= (+ ?x507 A_0 ?x935 ?x542) 0.0)))
 (let (($x53924 (or $x937 $x1307 (<= (+ ?x1155 A_1 ?x507 A_3 ?x1012 ?x935 A_0 ?x846) 0.0) $x1980 (<= (+ ?x1520 ?x1100 ?x2158 ?x533 ?x1012 ?x2159 ?x1155 ?x1497) 0.0) $x13319)))
 (let ((?x926 (* (/ 1.0 3.0) S_3)))
 (let ((?x7597 (+ Q_3 ?x665 (* (- (/ 4.0 3.0)) A_0) (* (/ 1.0 3.0) L_0) ?x926 S_0 L_1 A_2)))
 (let ((?x1987 (* 3.0 A_2)))
 (let ((?x1197 (* (- 3.0) A_1)))
 (let ((?x1651 (* 2.0 S_3)))
 (let ((?x2135 (* (- 3.0) A_3)))
 (let ((?x1828 (* 3.0 Q_3)))
 (let (($x55153 (or $x481 $x1084 (<= (+ ?x1828 ?x2135 A_0 ?x533 ?x1651 ?x1476 ?x1197 ?x1987) 0.0) (<= ?x7597 0.0))))
 (let (($x943 (<= (+ Q_3 ?x617 S_0 L_1) 0.0)))
 (let (($x22048 (or $x481 $x943 $x1084 (<= (+ ?x846 Q_3 S_3 A_0 ?x533 ?x1187 ?x639) 0.0))))
 (let (($x8119 (<= (+ ?x846 ?x507 A_3 A_0 (* (- 1.0) S_2) ?x533) 0.0)))
 (let (($x1789 (<= (+ ?x507 (* (- 1.0) S_2) ?x542 A_1) 0.0)))
 (let (($x1678 (<= (+ ?x542 A_1 ?x507 A_3 ?x1012 ?x846) 0.0)))
 (let (($x55270 (or $x1084 $x1307 $x1678 (<= (+ ?x1520 ?x617 L_0 ?x1012 ?x1155 (* 2.0 A_1)) 0.0) $x1980)))
 (let (($x1413 (<= (+ A_2 ?x665) 0.0)))
 (let (($x54996 (or $x481 $x1413 (<= (+ ?x617 ?x665 S_0 L_1 A_2) 0.0) (<= (+ A_0 S_3 ?x533 ?x1474 ?x1187 (* (- 2.0) A_1) ?x1493) 0.0))))
 (let (($x21533 (or $x481 $x943 $x1084 (<= (+ ?x1828 ?x1496 (* (- 2.0) L_0) S_3 ?x1476 ?x1197) 0.0))))
 (let (($x21528 (or $x481 $x943 $x1084 (<= (+ ?x1447 A_0 ?x533 S_2 ?x1187 (* (- 2.0) A_1)) 0.0))))
 (let (($x2052 (<= (+ ?x507 A_3 A_0 ?x533 (* (- 2.0) S_2) ?x542 A_1 ?x846) 0.0)))
 (let (($x1965 (<= (+ ?x507 A_3 ?x1496 (* (- 2.0) L_0) (* (- 3.0) S_2) ?x542) 0.0)))
 (let (($x1982 (<= (+ Q_3 ?x665 ?x1469 (* 2.0 L_0) (* 3.0 S_1) L_1) 0.0)))
 (let (($x2420 (<= (+ ?x507 A_3 ?x1496 ?x533 (* (- 1.0) S_2) ?x935 ?x542 ?x846) 0.0)))
 (let (($x1093 (<= (+ ?x542 A_1 (* (- 1.0) S_2)) 0.0)))
 (let ((?x1626 (* (/ 1.0 2.0) A_2)))
 (let ((?x1935 (* (/ 1.0 2.0) L_1)))
 (let ((?x3329 (* (/ 1.0 2.0) S_0)))
 (let ((?x927 (* (- 1.0) S_2)))
 (let ((?x4898 (* (- (/ 1.0 2.0)) A_3)))
 (let ((?x3614 (* (/ 1.0 2.0) S_3)))
 (let (($x21423 (or $x481 $x1093 (not (<= (+ ?x617 ?x927 S_0 A_1) 0.0)) (<= (+ ?x3614 ?x2108 ?x4898 ?x927 ?x3329 ?x1935 ?x1626) 0.0))))
 (let (($x2431 (<= (+ ?x617 ?x927 S_0 A_1) 0.0)))
 (let (($x21419 (or $x481 $x1093 $x2431 (<= (+ A_0 S_3 ?x533 ?x665 ?x927 L_1 ?x639 A_2) 0.0))))
 (let (($x1751 (or (<= (+ (* (/ 2.0 3.0) A_0) (* (- (/ 2.0 3.0)) L_0) ?x926 ?x927) 0.0) $x1093)))
 (and (<= ?x542 ?x533) $x1751 (or $x481 $x943 (<= (+ Q_3 S_1 L_1 ?x639) 0.0)) (or $x1413 $x2922) (or $x1307 $x1678 $x1789 $x1980) (or $x1093 (<= (+ ?x846 S_3 A_0 ?x927 ?x533 L_1) 0.0)) $x21419 $x21423 (or $x937 $x1093 $x1965 $x2420) (or $x937 $x1093 $x8119) (or $x1084 $x1982 (<= (+ A_2 Q_3 ?x665 ?x617 L_0 S_1) 0.0)) (or $x1789 $x1965 $x2052) $x21528 $x21533 $x54996 $x55270 (or $x1307 $x1789 $x2922) (or $x1789 $x8119) $x22048 $x55153 (or $x937 $x1307 $x1678 $x1980) $x53924 (or $x481 $x943 $x1084 $x2044) $x56114 (or $x1084 $x2672) (or $x481 $x960 $x1084 (not $x10809)) (or $x481 $x960 $x1482 $x10809) (or $x481 $x1084 $x2044 $x2666) (or $x1084 $x13173) $x23339 (or $x1084 $x1307 $x2922) $x963 (<= (+ Q_3 ?x665 S_3 L_1) 0.0) (<= (+ S_0 L_0 ?x617) 0.0) (<= (+ L_1 ?x639 S_1) 0.0) (<= (+ ?x935 S_0) 0.0) (<= (+ ?x1012 S_2) 0.0) (<= (+ ?x846 L_1 S_2) 0.0) (<= (+ ?x927 S_1) 0.0)))))))))))))))))))))))))))))))))))))))))))))))))))))))))))))))))))))))))))))))))))
(check-sat)
